c --- [ banner ] -------------------------------------------------------------
c 
c CaDiCaL Radically Simplified CDCL SAT Solver
c Copyright (c) 2016-2021 A. Biere, M. Fleury, N. Froleyks
c 
c Version 1.5.2 9c38a080b32c28d805e8e6ca21849856b0cda605
c g++ (Ubuntu 7.5.0-3ubuntu1~18.04) 7.5.0 -Wall -Wextra -O3 -DNDEBUG
c Wed Feb 16 23:15:36 EST 2022 Linux fac-vanhoeve01 5.4.0-99-generic x86_64
c 
c --- [ limit ] --------------------------------------------------------------
c 
c setting time limit to 600 seconds real time (due to '-t 600')
c setting conflict limit to 1000000000 conflicts (due to '1000000000')
c 
c --- [ parsing input ] ------------------------------------------------------
c 
c reading DIMACS file from 'ddfwcnfs/queen15_15.col_15.cnf'
c opening file to read 'ddfwcnfs/queen15_15.col_15.cnf'
c found 'p cnf 3375 70260' header
c parsed 70260 clauses in 0.03 seconds process time
c closing file 'ddfwcnfs/queen15_15.col_15.cnf'
c after reading 944836 bytes 0.9 MB
c 
c --- [ options ] ------------------------------------------------------------
c 
c all options are set to their default value
c 
c --- [ solving ] ------------------------------------------------------------
c 
c time measured in process time since initialization
c 
c  seconds  reductions  redundant  irredundant
c         MB    restarts       trail     variables
c          level   conflicts       glue       remaining
c 
c *  0.03  9  0 0   0    0    0  0% 0 70035 3150 93%
c {  0.04  9  0 0   0    0    0  0% 0 70035 3150 93%
c -  0.05 10 14 1   0  300  112 24% 11 70035 3150 93%
c -  0.08 12 13 2  15  900  354 24% 11 70035 3150 93%
c }  0.09 12 14 2  15 1001  412 24% 11 70035 3150 93%
c [  0.09 12  0 2  15 1001  412  0% 0 70035 3150 93%
c O  0.09 12 10 2  15 1002  413 24% 10 70035 3150 93%
c -  0.12 12 17 3  15 1801  731 24% 13 70035 3150 93%
c ]  0.16 12 16 3  16 3002 1496 24% 13 70035 3150 93%
c {  0.16 12 14 3  16 3002 1496 24% 11 70035 3150 93%
c -  0.17 12 14 4  16 3002 1050 24% 11 70035 3150 93%
c F  0.17 12 14 4  16 3003 1051 24% 11 70035 3150 93%
c -  0.22 12 14 5  86 4504 1073 24% 12 70035 3150 93%
c #  0.30 12 14 5 125 6004 1840 24% 12 70035 3150 93%
c -  0.32 12 14 6 133 6305 1264 24% 12 70035 3150 93%
c }  0.34 12 14 6 140 7003 1627 24% 12 70035 3150 93%
c [  0.34 12 16 6 140 7003 1627 24% 13 70035 3150 93%
c -  0.39 12 19 7 141 8405 1904 28% 13 70035 3150 93%
c s  0.43 14 20 7 141 8950 2153 29% 13 70035 3150 93%
c e  0.56 14 20 7 141 8950   24 29% 13 53893 2520 75%
c 
c  seconds  reductions  redundant   irredundant
c         MB    restarts       trail      variables
c          level   conflicts       glue        remaining
c 
c s  0.59 14 20 7 141 8950   22 29% 13 53893 2520 75%
c ^  0.60 14 20 7 141 8950   22 29% 13 53893 2520 75%
c I  0.65 12 21 7 142 10005  816 20% 14 53893 2520 75%
c -  0.76 14 44 8 143 10805 1552 47% 23 53893 2520 75%
c -  1.17 17 77 9 145 13508 2948 68% 45 53893 2520 75%
c ]  1.39 17 86 9 145 15003 4355 72% 52 53893 2520 75%
c {  1.39 17 14 9 145 15003 4355 33% 12 53893 2520 75%
c B  1.45 17 15 9 146 15007 4359 33% 12 53893 2520 75%
c -  1.51 17 14 10 173 16508 3302 30% 12 53893 2520 75%
c -  1.62 14 14 11 266 19809 2610 27% 12 53893 2520 75%
c W  1.71 14 14 11 337 21008 3224 26% 12 53893 2520 75%
c -  1.80 16 14 12 442 23410 2601 25% 12 53893 2520 75%
c s  2.00 16 18 12 663 26627 3848 27% 13 53893 2520 75%
c w  2.03 16 18 12 663 26627 3847 27% 13 53893 2520 75%
c s  2.11 16 18 12 663 26627 3663 27% 13 53893 2520 75%
c ^  2.12 16 18 12 663 26627 3663 27% 13 53893 2520 75%
c -  2.18 18 18 13 727 27310 2746 27% 14 53893 2520 75%
c F  2.20 18 18 13 727 28010 3171 27% 14 53893 2520 75%
c }  2.35 18 18 13 736 31004 5115 26% 13 53893 2520 75%
c [  2.35 18 86 13 736 31004 5115 72% 52 53893 2520 75%
c 
c  seconds  reductions    redundant   irredundant
c         MB     restarts        trail      variables
c          level     conflicts       glue        remaining
c 
c -  2.39 18 86 14 736 31511 3512 69% 50 53893 2520 75%
c B  2.55 18 67 14 739 36011 6588 50% 40 53893 2520 75%
c -  2.56 18 67 15 739 36012 4131 50% 40 53893 2520 75%
c -  3.36 17 113 16 742 40815 5625 61% 52 53893 2520 75%
c W  4.13 17 120 16 743 45015 9590 66% 57 53893 2520 75%
c -  4.30 17 120 17 744 45915 6641 67% 59 53893 2520 75%
c -  5.26 16 118 18 744 51317 6962 71% 63 53893 2520 75%
c s  5.56 17 116 18 744 53139 8292 72% 63 53893 2520 75%
c s  5.68 17 116 18 744 53139 8208 72% 63 53893 2520 75%
c ^  5.69 17 116 18 744 53139 8208 72% 63 53893 2520 75%
c O  5.97 17 114 18 745 55016 9922 73% 63 53893 2520 75%
c -  6.07 20 109 19 747 57019 7485 70% 60 53893 2520 75%
c ]  6.28 20 94 19 751 63004 11483 61% 53 53893 2520 75%
c {  6.28 20 18 19 751 63004 11483 26% 13 53893 2520 75%
c -  6.30 20 18 20 756 63019 6069 26% 13 53893 2520 75%
c B  6.41 20 19 20 888 66017 8386 25% 13 53893 2520 75%
c -  6.73 20 24 21 1372 69321 6443 28% 15 53893 2520 75%
c -  7.05 20 23 22 1560 75921 5767 27% 15 53893 2520 75%
c W  7.22 20 22 22 1572 78021 7157 26% 15 53893 2520 75%
c -  7.43 20 21 23 1593 82823 6106 26% 14 53893 2520 75%
c 
c  seconds  reductions     redundant   irredundant
c         MB     restarts         trail      variables
c          level      conflicts       glue        remaining
c 
c s  7.69 20 20 23 1625 88491 8377 25% 14 53893 2520 75%
c s  7.82 20 20 23 1625 88491 7091 25% 14 53893 2520 75%
c ^  7.82 20 20 23 1625 88491 7091 25% 14 53893 2520 75%
c -  7.90 20 20 24 1652 90025 5128 25% 14 53893 2520 75%
c #  7.94 20 20 24 1668 91024 5801 25% 14 53893 2520 75%
c -  8.18 20 19 25 1688 97525 5909 24% 14 53893 2520 75%
c B  8.51 20 19 25 1766 105027 10219 24% 14 53893 2520 75%
c -  8.58 20 19 26 1846 105329 6320 24% 14 53893 2520 75%
c -  8.93 20 19 27 2044 113429 6561 24% 14 53893 2520 75%
c W  9.31 20 19 27 2119 120028 10367 24% 14 53893 2520 75%
c -  9.40 20 19 28 2119 121832 6838 24% 14 53893 2520 75%
c }  9.61 20 18 28 2128 127004 9928 24% 14 53893 2520 75%
c [  9.61 20 94 28 2128 127004 9928 61% 53 53893 2520 75%
c -  9.76 20 87 29 2128 130532 7821 57% 50 53893 2520 75%
c s  9.86 20 84 29 2131 132678 8498 55% 48 53893 2520 75%
c s  9.99 20 84 29 2131 132678 8342 55% 48 53893 2520 75%
c ^  9.99 20 84 29 2131 132678 8342 55% 48 53893 2520 75%
c B 10.14 20 78 29 2133 136030 10671 52% 46 53893 2520 75%
c - 10.67 20 87 30 2135 139532 9536 55% 48 53893 2520 75%
c - 12.15 25 89 31 2136 148832 11290 60% 51 53893 2520 75%
c 
c  seconds  reductions       redundant   irredundant
c         MB     restarts           trail      variables
c          level      conflicts         glue        remaining
c 
c W 12.96 25 89 31 2137 153034 15227 62% 52 53893 2520 75%
c - 13.63 25 117 32 2137 158432 12729 64% 55 53893 2520 75%
c - 15.20 26 157 33 2138 168332 13468 67% 60 53893 2520 75%
c I 15.61 26 154 33 2140 171035 15972 68% 60 53893 2520 75%
c - 17.02 27 164 34 2144 178534 13302 70% 66 53893 2520 75%
c s 18.68 27 160 34 2149 185702 19427 72% 69 53893 2520 75%
c s 18.88 27 160 34 2149 185702 19372 72% 69 53893 2520 75%
c - 19.66 27 158 35 2151 189034 14249 72% 70 53893 2520 75%
c B 19.87 27 157 35 2151 190036 15168 73% 70 53893 2520 75%
c - 22.08 24 150 36 2152 199835 14086 74% 71 53893 2520 75%
c W 24.59 24 143 36 2159 210037 23290 76% 72 53893 2520 75%
c - 24.84 31 143 37 2159 210937 15295 76% 72 53893 2520 75%
c - 27.03 31 135 38 2166 222337 14954 78% 71 53893 2520 75%
c O 28.79 31 131 38 2167 231038 22754 79% 71 53893 2520 75%
c - 28.95 31 127 39 2167 234039 15162 77% 69 53893 2520 75%
c - 29.54 31 113 40 2168 246041 13384 71% 62 53893 2520 75%
c B 29.90 31 106 40 2169 253039 18566 67% 58 53893 2520 75%
c ] 30.13 31 111 40 2169 255007 20367 67% 59 53893 2520 75%
c { 30.13 31 18 40 2169 255007 20367 24% 14 53893 2520 75%
c - 30.34 31 19 41 2327 258344 13859 24% 14 53893 2520 75%
c 
c  seconds  reductions       redundant   irredundant
c         MB     restarts           trail      variables
c          level      conflicts         glue        remaining
c 
c - 31.00 31 20 42 2886 270944 11222 25% 14 53893 2520 75%
c F 31.23 31 19 42 2901 276040 14088 25% 14 53893 2520 75%
c - 31.53 31 19 43 2949 283845 11178 24% 14 53893 2520 75%
c - 32.07 31 18 44 3039 297046 11317 23% 14 53893 2520 75%
c B 32.18 31 18 44 3052 300043 12952 23% 14 53893 2520 75%
c - 32.64 31 18 45 3316 310546 11137 24% 14 53893 2520 75%
c - 33.17 31 18 46 3416 324346 11268 23% 14 53893 2520 75%
c W 33.53 31 18 46 3416 325044 11782 23% 14 53893 2520 75%
c - 34.17 31 17 47 3604 338446 12437 23% 14 53893 2520 75%
c # 34.66 31 17 47 3688 351045 19838 22% 13 53893 2520 75%
c - 34.74 31 17 48 3695 352848 12284 22% 13 53893 2520 75%
c - 35.31 31 17 49 3850 367548 10928 22% 13 53893 2520 75%
c B 35.72 31 16 49 3945 378047 16536 22% 13 53893 2520 75%
c - 35.96 31 17 50 4136 382551 11232 22% 13 53893 2520 75%
c - 36.59 31 16 51 4308 397851 11088 22% 13 53893 2520 75%
c W 37.34 31 16 51 4410 406049 15635 22% 13 53893 2520 75%
c - 37.68 31 16 52 4471 413453 11767 22% 13 53893 2520 75%
c - 38.37 31 16 53 4723 429353 11779 22% 13 53893 2520 75%
c F 38.59 31 16 53 4877 435050 14807 21% 13 53893 2520 75%
c - 38.99 31 15 54 4933 445553 12108 21% 13 53893 2520 75%
c 
c  seconds  reductions       redundant   irredundant
c         MB     restarts           trail      variables
c          level      conflicts         glue        remaining
c 
c - 39.70 31 15 55 5102 462055 12008 21% 12 53893 2520 75%
c B 39.82 31 15 55 5224 465052 13822 21% 13 53893 2520 75%
c - 40.47 31 16 56 5948 478856 12473 22% 13 53893 2520 75%
c - 41.14 31 16 57 6438 495956 11939 22% 13 53893 2520 75%
c s 41.17 31 16 57 6438 495956 9484 22% 13 53893 2520 75%
c w 41.24 31 16 57 6438 495956 9483 22% 13 53893 2520 75%
c W 41.74 31 16 57 6439 496053 9539 22% 13 53893 2520 75%
c } 42.35 31 16 57 7013 511007 16990 22% 13 53893 2520 75%
c [ 42.35 31 111 57 7013 511007 16990 67% 59 53893 2520 75%
c - 42.49 31 109 58 7013 513356 11931 66% 58 53893 2520 75%
c W 43.85 31 96 58 7013 528057 22643 59% 52 53893 2520 75%
c - 44.03 31 93 59 7013 531056 16453 57% 51 53893 2520 75%
c - 45.11 31 81 60 7020 549058 17727 50% 45 53893 2520 75%
c I 45.81 31 74 60 7027 561058 26237 46% 42 53893 2520 75%
c - 47.19 40 114 61 7028 567359 20256 49% 55 53893 2520 75%
c - 50.77 44 136 62 7036 585959 23155 55% 66 53893 2520 75%
c B 52.75 44 138 62 7042 595061 31474 58% 70 53893 2520 75%
c - 55.00 41 134 63 7043 604859 23964 61% 70 53893 2520 75%
c - 59.07 33 126 64 7045 624059 24853 65% 70 53893 2520 75%
c W 60.92 33 124 64 7050 630062 30244 67% 70 53893 2520 75%
c 
c  seconds   reductions       redundant   irredundant
c         MB      restarts           trail      variables
c           level      conflicts         glue        remaining
c 
c - 63.06 42 123 65 7057 643559 25759 69% 69 53893 2520 75%
c - 67.27 42 115 66 7065 663361 25405 72% 67 53893 2520 75%
c O 67.84 42 114 66 7066 666063 27763 72% 67 53893 2520 75%
c - 68.83 42 98 67 7074 683461 22369 64% 59 53893 2520 75%
c B 69.92 42 86 67 7075 703064 36994 56% 52 53893 2520 75%
c - 70.07 42 89 68 7075 703861 21169 56% 52 53893 2520 75%
c - 73.36 42 94 69 7076 724562 24905 61% 54 53893 2520 75%
c W 77.56 42 92 69 7077 741068 40363 65% 55 53893 2520 75%
c - 78.74 46 92 70 7077 745564 28048 66% 56 53893 2520 75%
c - 83.57 46 89 71 7077 766866 27748 69% 56 53893 2520 75%
c I 86.03 46 86 71 7077 780071 39122 71% 57 53893 2520 75%
c - 87.45 46 118 72 7077 788466 28086 71% 64 53893 2520 75%
c - 92.49 66 179 73 7081 810370 29022 72% 86 53893 2520 75%
c B 95.20 66 184 73 7086 820072 37843 73% 93 53893 2520 75%
c - 97.19 46 174 74 7092 832570 28530 74% 90 53893 2520 75%
c - 102.28 54 157 75 7102 855070 28476 76% 86 53893 2520 75%
c s 102.33 54 157 75 7102 855070 25765 76% 86 53893 2520 75%
c w 102.46 54 157 75 7102 855070 25763 76% 86 53893 2520 75%
c W 104.66 54 153 75 7106 861074 30910 76% 85 53893 2520 75%
c - 107.31 54 154 76 7108 877870 30009 77% 83 53893 2520 75%
c 
c  seconds    reductions       redundant   irredundant
c          MB      restarts           trail      variables
c            level      conflicts         glue        remaining
c 
c - 111.70 54 141 77 7115 900972 30158 79% 78 53893 2520 75%
c O 112.14 54 140 77 7117 903077 32090 79% 78 53893 2520 75%
c - 115.61 54 125 78 7126 924372 29278 80% 73 53893 2520 75%
c B 119.59 54 113 78 7137 946081 47531 81% 69 53893 2520 75%
c - 119.97 54 112 79 7138 948072 29754 81% 69 53893 2520 75%
c - 124.00 54 101 80 7140 972072 29270 81% 64 53893 2520 75%
c W 128.49 54 95 80 7140 990084 45632 82% 62 53893 2520 75%
c - 129.98 54 93 81 7140 996374 31667 82% 61 53893 2520 75%
c - 135.26 58 86 82 7150 1020974 34062 83% 58 53893 2520 75%
c ] 135.67 58 86 82 7152 1023007 35927 83% 58 53893 2520 75%
c { 135.67 58 16 82 7152 1023007 35927 22% 13 53893 2520 75%
c # 136.27 58 17 82 9366 1035085 43056 22% 13 53893 2520 75%
c - 136.73 58 17 83 9680 1045876 24863 22% 13 53893 2520 75%
c - 137.98 58 16 84 9887 1071076 23205 22% 13 53893 2520 75%
c B 138.44 58 16 84 9961 1081087 29366 22% 13 53893 2520 75%
c - 138.99 58 16 85 10336 1096576 19816 22% 13 53893 2520 75%
c - 140.07 58 15 86 10861 1122377 18698 21% 13 53893 2520 75%
c W 141.56 58 16 86 11238 1128088 22569 22% 13 53893 2520 75%
c - 142.41 58 16 87 11675 1148477 18997 22% 13 53893 2520 75%
c - 143.50 58 15 88 12212 1174881 19542 22% 13 53893 2520 75%
c 
c  seconds   reductions         redundant   irredundant
c          MB      restarts            trail      variables
c           level        conflicts         glue        remaining
c 
c F 143.56 58 15 88 12245 1176089 20217 22% 13 53893 2520 75%
c - 144.60 58 15 89 12526 1201581 20334 21% 13 53893 2520 75%
c B 145.61 58 15 89 12777 1225094 32681 21% 12 53893 2520 75%
c - 145.83 58 15 90 12980 1228581 19609 21% 13 53893 2520 75%
c - 146.88 58 15 91 13347 1255882 19246 21% 12 53893 2520 75%
c s 146.92 58 15 91 13347 1255882 15605 21% 12 53893 2520 75%
c w 147.01 58 15 91 13347 1255882 15602 21% 12 53893 2520 75%
c W 149.30 58 15 91 13699 1275096 25363 21% 12 53893 2520 75%
c - 149.70 58 14 92 13802 1283482 18826 21% 12 53893 2520 75%
c - 151.07 58 14 93 14472 1311383 19656 21% 12 53893 2520 75%
c # 151.76 58 14 93 14783 1326098 26877 21% 12 53893 2520 75%
c - 152.24 58 14 94 15114 1339584 20179 21% 12 53893 2520 75%
c - 153.42 58 14 95 16352 1368084 19761 20% 12 53893 2520 75%
c B 153.76 58 14 95 16532 1378099 24663 20% 12 53893 2520 75%
c - 154.77 58 16 96 17273 1396884 24820 21% 12 53893 2520 75%
c - 156.67 58 18 97 18005 1425985 30968 20% 12 53893 2520 75%
c W 158.44 58 18 97 18208 1431100 35056 20% 12 53893 2520 75%
c - 160.46 58 19 98 19202 1455385 34634 20% 12 53893 2520 75%
c - 163.03 58 20 99 20631 1485085 36048 19% 12 53893 2520 75%
c F 163.03 58 20 99 20631 1485101 36062 19% 12 53893 2520 75%
c 
c  seconds    reductions         redundant   irredundant
c          MB       restarts            trail      variables
c           level         conflicts         glue        remaining
c 
c - 164.65 58 18 100 21150 1515085 25177 20% 12 53893 2520 75%
c B 165.78 58 17 100 21590 1540102 37820 20% 12 53893 2520 75%
c - 166.45 58 19 101 22638 1545386 23262 22% 13 53893 2520 75%
c - 167.56 58 18 102 23347 1575987 21461 22% 13 53893 2520 75%
c W 169.99 58 17 102 23633 1596104 32159 22% 13 53893 2520 75%
c - 170.51 58 17 103 23795 1606887 21998 22% 12 53893 2520 75%
c - 172.02 58 16 104 24253 1638089 21867 22% 12 53893 2520 75%
c # 172.72 58 16 104 24670 1653105 29981 22% 12 53893 2520 75%
c - 173.43 58 15 105 24999 1669590 22822 22% 12 53893 2520 75%
c - 174.69 58 15 106 26255 1701390 21946 22% 12 53893 2520 75%
c s 174.72 58 15 106 26255 1701390 18932 22% 12 53893 2520 75%
c w 174.81 58 15 106 26255 1701390 18926 22% 12 53893 2520 75%
c B 175.21 58 15 106 26551 1711106 23704 22% 12 53893 2520 75%
c - 176.23 58 16 107 27710 1733490 22168 22% 13 53893 2520 75%
c - 177.96 58 17 108 29143 1765890 24433 24% 13 53893 2520 75%
c W 179.82 58 17 108 29183 1770108 26549 23% 13 53893 2520 75%
c - 181.21 58 16 109 29651 1798590 23013 23% 13 53893 2520 75%
c F 182.83 58 16 109 30338 1830110 39422 23% 13 53893 2520 75%
c - 182.93 58 16 110 30342 1831590 24033 23% 13 53893 2520 75%
c - 184.39 58 15 111 30754 1864890 24475 23% 13 53893 2520 75%
c 
c  seconds    reductions         redundant   irredundant
c          MB       restarts            trail      variables
c           level         conflicts         glue        remaining
c 
c B 185.76 58 15 111 31327 1891111 38569 22% 13 53893 2520 75%
c - 186.28 58 16 112 31846 1898493 25558 23% 13 53893 2520 75%
c - 188.15 58 19 113 33484 1932395 27230 25% 14 53893 2520 75%
c W 190.89 58 18 113 33690 1953112 38283 25% 14 53893 2520 75%
c - 191.52 58 18 114 33838 1966595 25130 24% 14 53893 2520 75%
c - 193.31 58 17 115 34277 2001095 26173 24% 14 53893 2520 75%
c # 194.04 58 16 115 34613 2016116 33488 23% 14 53893 2520 75%
c - 195.02 58 16 116 34808 2035895 25664 23% 13 53893 2520 75%
c } 195.49 58 16 116 34924 2047007 31242 23% 13 53893 2520 75%
c [ 195.49 58 86 116 34924 2047007 31242 83% 58 53893 2520 75%
c - 196.83 58 73 117 34934 2070996 28631 69% 50 53893 2520 75%
c I 197.46 58 68 117 34939 2080119 34102 65% 47 53893 2520 75%
c - 202.28 58 96 118 34943 2106396 37746 69% 60 53893 2520 75%
c - 213.94 80 112 119 34958 2142099 45750 74% 76 53893 2520 75%
c B 214.76 80 113 119 34958 2145122 48568 74% 77 53893 2520 75%
c - 227.71 69 112 120 34973 2178101 46862 77% 79 53893 2520 75%
c W 239.14 69 109 120 34975 2211124 76818 79% 78 53893 2520 75%
c - 239.66 86 115 121 34975 2214402 49059 79% 78 53893 2520 75%
c s 239.77 86 115 121 34975 2214402 45827 79% 78 53893 2520 75%
c w 239.96 86 115 121 34975 2214402 45823 79% 78 53893 2520 75%
c 
c  seconds     reductions         redundant   irredundant
c          MB        restarts            trail      variables
c            level         conflicts         glue        remaining
c 
c - 247.40 86 112 122 34976 2251003 50669 81% 78 53893 2520 75%
c O 255.56 86 108 122 34976 2278125 74776 81% 77 53893 2520 75%
c - 256.21 86 102 123 34976 2287906 49875 78% 73 53893 2520 75%
c - 259.43 86 82 124 34977 2325109 43201 64% 59 53893 2520 75%
c B 260.88 86 77 124 34977 2346126 59697 58% 53 53893 2520 75%
c - 264.11 86 109 125 34977 2362609 46343 63% 55 53893 2520 75%
c - 273.92 110 166 126 34977 2400410 50677 70% 61 53893 2520 75%
c W 280.70 110 182 126 34977 2415129 64835 73% 63 53893 2520 75%
c - 287.53 89 168 127 34984 2438512 51561 75% 67 53893 2520 75%
c - 300.49 89 147 128 35002 2476912 50603 78% 71 53893 2520 75%
c I 303.07 89 143 128 35006 2485130 57572 79% 72 53893 2520 75%
c - 310.57 92 154 129 35013 2515613 50494 80% 83 53893 2520 75%
c - 324.50 116 157 130 35030 2554616 50125 81% 96 53893 2520 75%
c B 324.93 116 157 130 35031 2556131 51498 81% 96 53893 2520 75%
c - 333.21 92 149 131 35040 2593917 50057 82% 93 53893 2520 75%
c W 347.02 92 140 131 35042 2628133 80619 83% 92 53893 2520 75%
c - 349.37 110 139 132 35046 2633517 51911 83% 92 53893 2520 75%
c - 362.74 110 127 133 35063 2673417 51948 83% 87 53893 2520 75%
c O 372.84 110 118 133 35071 2701136 75305 83% 84 53893 2520 75%
c - 373.52 110 109 134 35074 2713618 50169 79% 77 53893 2520 75%
c 
c  seconds     reductions         redundant   irredundant
c           MB       restarts            trail      variables
c            level         conflicts         glue        remaining
c 
c - 375.77 110 82 135 35093 2754119 40473 59% 58 53893 2520 75%
c s 375.99 110 82 135 35093 2754119 39373 59% 58 53893 2520 75%
c w 376.22 110 82 135 35093 2754119 39351 59% 58 53893 2520 75%
c B 377.97 110 71 135 35101 2775138 53401 52% 51 53893 2520 75%
c - 381.31 110 80 136 35103 2794919 50404 57% 55 53893 2520 75%
c - 389.74 110 86 137 35104 2836020 52328 66% 58 53893 2520 75%
c W 396.13 110 87 137 35104 2850140 65588 68% 59 53893 2520 75%
c - 403.23 110 86 138 35104 2877424 53371 71% 60 53893 2520 75%
c - 415.41 110 85 139 35119 2919124 54545 75% 61 53893 2520 75%
c I 417.39 110 85 139 35120 2926141 60872 76% 62 53893 2520 75%
c - 425.90 110 111 140 35135 2961124 55447 78% 74 53893 2520 75%
c B 439.38 110 116 140 35150 3003143 94342 81% 80 53893 2520 75%
c - 439.59 110 116 141 35150 3003425 55514 81% 80 53893 2520 75%
c - 455.82 110 117 142 35166 3046026 57295 82% 82 53893 2520 75%
c W 472.42 110 116 142 35167 3081144 89808 83% 84 53893 2520 75%
c - 475.72 110 115 143 35167 3088926 59490 84% 84 53893 2520 75%
c - 494.54 110 112 144 35188 3132126 59336 84% 85 53893 2520 75%
c O 504.27 110 109 144 35198 3160146 83039 84% 84 53893 2520 75%
c - 505.23 110 101 145 35200 3175627 55851 80% 76 53893 2520 75%
c - 507.82 50 75 146 35220 3219429 45071 60% 57 53893 2520 75%
c 
c  seconds    reductions         redundant   irredundant
c          MB       restarts            trail      variables
c           level         conflicts         glue        remaining
c 
c B 509.33 50 67 146 35228 3240149 60162 53% 51 53893 2520 75%
c - 513.52 64 80 147 35230 3263530 49671 59% 55 53893 2520 75%
c - 523.30 85 91 148 35231 3307930 57038 69% 58 53893 2520 75%
c W 530.66 85 90 148 35231 3321150 69199 71% 58 53893 2520 75%
c - 538.11 102 86 149 35231 3352630 58065 74% 58 53893 2520 75%
c s 538.27 102 86 149 35231 3352630 57820 74% 58 53893 2520 75%
c w 538.55 102 86 149 35231 3352630 57807 74% 58 53893 2520 75%
c - 552.01 102 82 150 35232 3397630 62191 78% 58 53893 2520 75%
c I 553.80 102 81 150 35232 3403151 67157 78% 58 53893 2520 75%
c - 565.93 143 231 151 35232 3442932 61459 79% 99 53893 2520 75%
c B 582.04 143 339 151 35232 3486153 102943 80% 131 53893 2520 75%
c - 582.66 148 337 152 35232 3488532 61897 80% 130 53893 2520 75%
c - 593.00 103 257 153 35233 3534432 58373 82% 113 53893 2520 75%
c ] 599.93 103 222 153 35233 3560772 82585 82% 106 53893 2520 75%
c ? 599.93 103 222 153 35233 3560772 82585 82% 106 53893 2520 75%
c 
c --- [ result ] -------------------------------------------------------------
c 
c UNKNOWN
c 
c --- [ run-time profiling ] -------------------------------------------------
c 
c process time taken by individual solving procedures
c (percentage relative to process time for solving)
c 
c       591.51   98.60% search
c       495.40   82.58% stable
c        63.80   10.63% unstable
c        32.31    5.39% walk
c         8.38    1.40% simplify
c         3.85    0.64% probe
c         1.20    0.20% vivify
c         0.84    0.14% subsume
c         0.64    0.11% ternary
c         0.38    0.06% elim
c         0.03    0.01% parse
c         0.00    0.00% lucky
c   =================================
c       599.90   99.99% solve
c 
c last line shows process time for solving
c (percentage relative to total process time)
c 
c --- [ statistics ] ---------------------------------------------------------
c 
c chronological:            555222        15.59 %  of conflicts
c conflicts:               3560772      5935.62    per second
c decisions:               4548384      7581.92    per second
c eliminated:                  630        18.67 %  of all variables
c fixed:                       225         6.67 %  of all variables
c learned:                 3520679        98.87 %  per conflict
c learned_lits:          466761100       100.00 %  learned literals
c minimized:                     0         0.00 %  learned literals
c shrunken:              190711114        40.86 %  learned literals
c minishrunken:           34196495         7.33 %  learned literals
c propagations:          471085405         0.79 M  per second
c reduced:                 2590733        72.76 %  per conflict
c rephased:                     83     42900.87    interval
c restarts:                  35233       101.06    interval
c stabilizing:                   6        61.67 %  of conflicts
c subsumed:                 845174        11.74 %  of all clauses
c strengthened:              29695         0.41 %  of all clauses
c vivified:                    211         0.00 %  of all clauses
c walked:                       26    136952.77    interval
c weakened:                  24083         2.45    average size
c 
c seconds are measured in process time for solving
c 
c --- [ resources ] ----------------------------------------------------------
c 
c total process time since initialization:       599.93    seconds
c total real time since initialization:          600.00    seconds
c maximum resident set size of process:          188.09    MB
c 
c --- [ shutting down ] ------------------------------------------------------
c 
c exit 0
